\ENCODING=ISO-8859-1
\Problem name: cluster_small

Maximize
 obj1: 38 x0 + 65 x1 + 26 x2
Subject To
 c0: 52 x0 + 8 x1 + 33 x2 + s0 <= 86
 c1: 59 x0 + 10 x1 + 92 x2 + s1 <= 220
 c2: 86 x0 + 84 x1 + 11 x2 + s2 <= 1
 c3: 66 x0 + 4 x1 + 47 x2 + s3 <= 108
Bounds
 0 <= x0 <= 1
 0 <= x1 <= 1
 0 <= x2 <= 1
End
